Solver command line: []

Read LP format model from file C:\Users\wlhlm\AppData\Local\Temp\tmp16m1x9yf.pyomo.lp
Reading time = 46.25 seconds
objective: 1002984 rows, 875999 columns, 78984486 nonzeros
Set parameter MIPGap to value 0.03
Gurobi Optimizer version 12.0.1 build v12.0.1rc0 (win64 - Windows 11.0 (26100.2))

CPU model: Intel(R) Core(TM) Ultra 7 258V, instruction set [SSE2|AVX|AVX2]
Thread count: 8 physical cores, 8 logical processors, using up to 8 threads

Non-default parameters:
MIPGap  0.03

Optimize a model with 1002984 rows, 875999 columns and 78984486 nonzeros
Model fingerprint: 0xde1e1d38
Model has 8759 quadratic constraints
Variable types: 753360 continuous, 122639 integer (105120 binary)
Coefficient statistics:
  Matrix range     [7e-03, 2e+02]
  QMatrix range    [1e+00, 1e+00]
  Objective range  [1e-02, 4e+02]
  Bounds range     [1e+00, 3e+00]
  RHS range        [8e-05, 1e+04]
Presolve removed 157680 rows and 122640 columns (presolve time = 8s)...
Presolve removed 617548 rows and 494907 columns (presolve time = 15s)...
Presolve removed 665581 rows and 529949 columns (presolve time = 15s)...
Presolve removed 687444 rows and 547469 columns (presolve time = 20s)...
Presolve removed 699383 rows and 556976 columns (presolve time = 27s)...
Presolve removed 702103 rows and 559696 columns (presolve time = 33s)...
Presolve removed 702103 rows and 559696 columns (presolve time = 36s)...
Presolve removed 702103 rows and 559696 columns (presolve time = 43s)...
Presolve removed 702103 rows and 559696 columns (presolve time = 47s)...
Presolve removed 710862 rows and 559696 columns (presolve time = 55s)...
Presolve removed 710862 rows and 559697 columns (presolve time = 60s)...
Presolve removed 710862 rows and 559697 columns (presolve time = 69s)...
Presolve removed 815138 rows and 663858 columns (presolve time = 70s)...
Presolve removed 806379 rows and 663858 columns
Presolve time: 70.07s
Presolved: 196605 rows, 212141 columns, 619647 nonzeros
Variable types: 148981 continuous, 63160 integer (63160 binary)
Performing another presolve...
Presolve removed 52556 rows and 52558 columns (presolve time = 5s)...
Presolve removed 52556 rows and 52558 columns
Presolve time: 5.41s
Deterministic concurrent LP optimizer: primal and dual simplex
Showing primal log only...


Root simplex log...

Iteration    Objective       Primal Inf.    Dual Inf.      Time
       0    6.3160343e+07   2.307831e+07   4.716258e+13     78s
   61347    5.9638616e+07   4.830065e+03   5.250521e+09     80s
Concurrent spin time: 0.01s

Solved with dual simplex

Root simplex log...

Iteration    Objective       Primal Inf.    Dual Inf.      Time
   61589    5.0974364e+07   0.000000e+00   0.000000e+00     81s

Root relaxation: objective 5.097436e+07, 61589 iterations, 3.75 seconds (3.78 work units)
Total elapsed time = 80.97s (DegenMoves)

    Nodes    |    Current Node    |     Objective Bounds      |     Work
 Expl Unexpl |  Obj  Depth IntInf | Incumbent    BestBd   Gap | It/Node Time

     0     0 5.0974e+07    0  595          - 5.0974e+07      -     -   85s
H    0     0                    5.125640e+07 5.0974e+07  0.55%     -   86s

Explored 1 nodes (69244 simplex iterations) in 87.57 seconds (54.62 work units)
Thread count was 8 (of 8 available processors)

Solution count 1: 5.12564e+07 

Optimal solution found (tolerance 3.00e-02)
Best objective 5.125639980758e+07, best bound 5.097436397504e+07, gap 0.5502%

